; benchmark generated from python API
(set-info :status unknown)
(declare-fun cell_1_3 () Int)
(declare-fun cell_1_6 () Int)
(declare-fun cell_2_6 () Int)
(declare-fun cell_2_8 () Int)
(declare-fun cell_3_3 () Int)
(declare-fun cell_3_9 () Int)
(declare-fun cell_4_4 () Int)
(declare-fun cell_4_5 () Int)
(declare-fun cell_5_1 () Int)
(declare-fun cell_5_8 () Int)
(declare-fun cell_6_1 () Int)
(declare-fun cell_6_9 () Int)
(declare-fun cell_7_2 () Int)
(declare-fun cell_7_4 () Int)
(declare-fun cell_8_2 () Int)
(declare-fun cell_9_7 () Int)
(declare-fun cell_1_1 () Int)
(declare-fun cell_2_1 () Int)
(declare-fun cell_3_1 () Int)
(declare-fun cell_4_1 () Int)
(declare-fun cell_7_1 () Int)
(declare-fun cell_8_1 () Int)
(declare-fun cell_9_1 () Int)
(declare-fun cell_1_2 () Int)
(declare-fun cell_2_2 () Int)
(declare-fun cell_3_2 () Int)
(declare-fun cell_4_2 () Int)
(declare-fun cell_5_2 () Int)
(declare-fun cell_6_2 () Int)
(declare-fun cell_9_2 () Int)
(declare-fun cell_2_3 () Int)
(declare-fun cell_4_3 () Int)
(declare-fun cell_5_3 () Int)
(declare-fun cell_6_3 () Int)
(declare-fun cell_7_3 () Int)
(declare-fun cell_8_3 () Int)
(declare-fun cell_9_3 () Int)
(declare-fun cell_1_4 () Int)
(declare-fun cell_2_4 () Int)
(declare-fun cell_3_4 () Int)
(declare-fun cell_5_4 () Int)
(declare-fun cell_6_4 () Int)
(declare-fun cell_8_4 () Int)
(declare-fun cell_9_4 () Int)
(declare-fun cell_1_5 () Int)
(declare-fun cell_2_5 () Int)
(declare-fun cell_3_5 () Int)
(declare-fun cell_5_5 () Int)
(declare-fun cell_6_5 () Int)
(declare-fun cell_7_5 () Int)
(declare-fun cell_8_5 () Int)
(declare-fun cell_9_5 () Int)
(declare-fun cell_3_6 () Int)
(declare-fun cell_4_6 () Int)
(declare-fun cell_5_6 () Int)
(declare-fun cell_6_6 () Int)
(declare-fun cell_7_6 () Int)
(declare-fun cell_8_6 () Int)
(declare-fun cell_9_6 () Int)
(declare-fun cell_1_7 () Int)
(declare-fun cell_2_7 () Int)
(declare-fun cell_3_7 () Int)
(declare-fun cell_4_7 () Int)
(declare-fun cell_5_7 () Int)
(declare-fun cell_6_7 () Int)
(declare-fun cell_7_7 () Int)
(declare-fun cell_8_7 () Int)
(declare-fun cell_1_8 () Int)
(declare-fun cell_3_8 () Int)
(declare-fun cell_4_8 () Int)
(declare-fun cell_6_8 () Int)
(declare-fun cell_7_8 () Int)
(declare-fun cell_8_8 () Int)
(declare-fun cell_9_8 () Int)
(declare-fun cell_1_9 () Int)
(declare-fun cell_2_9 () Int)
(declare-fun cell_4_9 () Int)
(declare-fun cell_5_9 () Int)
(declare-fun cell_7_9 () Int)
(declare-fun cell_8_9 () Int)
(declare-fun cell_9_9 () Int)
(assert
 (= cell_1_3 1))
(assert
 (= cell_1_6 2))
(assert
 (= cell_2_6 1))
(assert
 (= cell_2_8 2))
(assert
 (= cell_3_3 2))
(assert
 (= cell_3_9 1))
(assert
 (= cell_4_4 2))
(assert
 (= cell_4_5 1))
(assert
 (= cell_5_1 2))
(assert
 (= cell_5_8 1))
(assert
 (= cell_6_1 1))
(assert
 (= cell_6_9 2))
(assert
 (= cell_7_2 2))
(assert
 (= cell_7_4 1))
(assert
 (= cell_8_2 1))
(assert
 (= cell_9_7 1))
(assert
 (let (($x80 (= cell_1_1 9)))
 (let (($x1082 (= cell_1_1 8)))
 (let (($x1961 (= cell_1_1 7)))
 (let (($x3028 (= cell_1_1 6)))
 (let (($x1882 (= cell_1_1 5)))
 (let (($x1893 (= cell_1_1 4)))
 (let (($x1659 (= cell_1_1 3)))
 (let (($x2453 (= cell_1_1 2)))
 (let (($x2419 (= cell_1_1 1)))
 (or $x2419 $x2453 $x1659 $x1893 $x1882 $x3028 $x1961 $x1082 $x80)))))))))))
(assert
 (let (($x585 (= cell_2_1 9)))
 (let (($x1709 (= cell_2_1 8)))
 (let (($x1342 (= cell_2_1 7)))
 (let (($x2960 (= cell_2_1 6)))
 (let (($x2733 (= cell_2_1 5)))
 (let (($x1272 (= cell_2_1 4)))
 (let (($x2606 (= cell_2_1 3)))
 (let (($x1270 (= cell_2_1 2)))
 (let (($x2137 (= cell_2_1 1)))
 (or $x2137 $x1270 $x2606 $x1272 $x2733 $x2960 $x1342 $x1709 $x585)))))))))))
(assert
 (let (($x272 (= cell_3_1 9)))
 (let (($x1036 (= cell_3_1 8)))
 (let (($x1052 (= cell_3_1 7)))
 (let (($x1323 (= cell_3_1 6)))
 (let (($x2244 (= cell_3_1 5)))
 (let (($x2124 (= cell_3_1 4)))
 (let (($x2004 (= cell_3_1 3)))
 (let (($x1563 (= cell_3_1 2)))
 (let (($x1683 (= cell_3_1 1)))
 (or $x1683 $x1563 $x2004 $x2124 $x2244 $x1323 $x1052 $x1036 $x272)))))))))))
(assert
 (let (($x942 (= cell_4_1 9)))
 (let (($x2295 (= cell_4_1 8)))
 (let (($x1585 (= cell_4_1 7)))
 (let (($x1607 (= cell_4_1 6)))
 (let (($x2289 (= cell_4_1 5)))
 (let (($x2803 (= cell_4_1 4)))
 (let (($x1248 (= cell_4_1 3)))
 (let (($x2416 (= cell_4_1 2)))
 (let (($x1136 (= cell_4_1 1)))
 (or $x1136 $x2416 $x1248 $x2803 $x2289 $x1607 $x1585 $x2295 $x942)))))))))))
(assert
 (let (($x2856 (= cell_5_1 2)))
 (or (= cell_5_1 1) $x2856 (= cell_5_1 3) (= cell_5_1 4) (= cell_5_1 5) (= cell_5_1 6) (= cell_5_1 7) (= cell_5_1 8) (= cell_5_1 9))))
(assert
 (let (($x243 (= cell_6_1 1)))
 (or $x243 (= cell_6_1 2) (= cell_6_1 3) (= cell_6_1 4) (= cell_6_1 5) (= cell_6_1 6) (= cell_6_1 7) (= cell_6_1 8) (= cell_6_1 9))))
(assert
 (let (($x411 (= cell_7_1 9)))
 (let (($x665 (= cell_7_1 8)))
 (let (($x38 (= cell_7_1 7)))
 (let (($x3391 (= cell_7_1 6)))
 (let (($x3202 (= cell_7_1 5)))
 (let (($x2486 (= cell_7_1 4)))
 (let (($x3791 (= cell_7_1 3)))
 (let (($x3451 (= cell_7_1 2)))
 (let (($x3170 (= cell_7_1 1)))
 (or $x3170 $x3451 $x3791 $x2486 $x3202 $x3391 $x38 $x665 $x411)))))))))))
(assert
 (let (($x3437 (= cell_8_1 9)))
 (let (($x352 (= cell_8_1 8)))
 (let (($x1977 (= cell_8_1 7)))
 (let (($x1620 (= cell_8_1 6)))
 (let (($x884 (= cell_8_1 5)))
 (let (($x1079 (= cell_8_1 4)))
 (let (($x1481 (= cell_8_1 3)))
 (let (($x1430 (= cell_8_1 2)))
 (let (($x2399 (= cell_8_1 1)))
 (or $x2399 $x1430 $x1481 $x1079 $x884 $x1620 $x1977 $x352 $x3437)))))))))))
(assert
 (let (($x958 (= cell_9_1 9)))
 (let (($x1688 (= cell_9_1 8)))
 (let (($x1303 (= cell_9_1 7)))
 (let (($x364 (= cell_9_1 6)))
 (let (($x1408 (= cell_9_1 5)))
 (let (($x2732 (= cell_9_1 4)))
 (let (($x1496 (= cell_9_1 3)))
 (let (($x1848 (= cell_9_1 2)))
 (let (($x1298 (= cell_9_1 1)))
 (or $x1298 $x1848 $x1496 $x2732 $x1408 $x364 $x1303 $x1688 $x958)))))))))))
(assert
 (let (($x2786 (= cell_1_2 9)))
 (let (($x3279 (= cell_1_2 8)))
 (let (($x1259 (= cell_1_2 7)))
 (let (($x2832 (= cell_1_2 6)))
 (let (($x3400 (= cell_1_2 5)))
 (let (($x613 (= cell_1_2 4)))
 (let (($x1203 (= cell_1_2 3)))
 (let (($x2750 (= cell_1_2 2)))
 (let (($x2093 (= cell_1_2 1)))
 (or $x2093 $x2750 $x1203 $x613 $x3400 $x2832 $x1259 $x3279 $x2786)))))))))))
(assert
 (let (($x367 (= cell_2_2 9)))
 (let (($x3857 (= cell_2_2 8)))
 (let (($x2501 (= cell_2_2 7)))
 (let (($x1542 (= cell_2_2 6)))
 (let (($x1898 (= cell_2_2 5)))
 (let (($x3542 (= cell_2_2 4)))
 (let (($x95 (= cell_2_2 3)))
 (let (($x2465 (= cell_2_2 2)))
 (let (($x1862 (= cell_2_2 1)))
 (or $x1862 $x2465 $x95 $x3542 $x1898 $x1542 $x2501 $x3857 $x367)))))))))))
(assert
 (let (($x1047 (= cell_3_2 9)))
 (let (($x281 (= cell_3_2 8)))
 (let (($x1359 (= cell_3_2 7)))
 (let (($x531 (= cell_3_2 6)))
 (let (($x1153 (= cell_3_2 5)))
 (let (($x2126 (= cell_3_2 4)))
 (let (($x999 (= cell_3_2 3)))
 (let (($x1225 (= cell_3_2 2)))
 (let (($x1340 (= cell_3_2 1)))
 (or $x1340 $x1225 $x999 $x2126 $x1153 $x531 $x1359 $x281 $x1047)))))))))))
(assert
 (let (($x321 (= cell_4_2 9)))
 (let (($x1916 (= cell_4_2 8)))
 (let (($x1889 (= cell_4_2 7)))
 (let (($x233 (= cell_4_2 6)))
 (let (($x517 (= cell_4_2 5)))
 (let (($x358 (= cell_4_2 4)))
 (let (($x1465 (= cell_4_2 3)))
 (let (($x2064 (= cell_4_2 2)))
 (let (($x1936 (= cell_4_2 1)))
 (or $x1936 $x2064 $x1465 $x358 $x517 $x233 $x1889 $x1916 $x321)))))))))))
(assert
 (let (($x2744 (= cell_5_2 9)))
 (let (($x2933 (= cell_5_2 8)))
 (let (($x2883 (= cell_5_2 7)))
 (let (($x1355 (= cell_5_2 6)))
 (let (($x2611 (= cell_5_2 5)))
 (let (($x1870 (= cell_5_2 4)))
 (let (($x1271 (= cell_5_2 3)))
 (let (($x2089 (= cell_5_2 2)))
 (let (($x1541 (= cell_5_2 1)))
 (or $x1541 $x2089 $x1271 $x1870 $x2611 $x1355 $x2883 $x2933 $x2744)))))))))))
(assert
 (let (($x2589 (= cell_6_2 9)))
 (let (($x241 (= cell_6_2 8)))
 (let (($x2166 (= cell_6_2 7)))
 (let (($x559 (= cell_6_2 6)))
 (let (($x2243 (= cell_6_2 5)))
 (let (($x1361 (= cell_6_2 4)))
 (let (($x2052 (= cell_6_2 3)))
 (let (($x528 (= cell_6_2 2)))
 (let (($x4045 (= cell_6_2 1)))
 (or $x4045 $x528 $x2052 $x1361 $x2243 $x559 $x2166 $x241 $x2589)))))))))))
(assert
 (let (($x2153 (= cell_7_2 2)))
 (or (= cell_7_2 1) $x2153 (= cell_7_2 3) (= cell_7_2 4) (= cell_7_2 5) (= cell_7_2 6) (= cell_7_2 7) (= cell_7_2 8) (= cell_7_2 9))))
(assert
 (let (($x1030 (= cell_8_2 1)))
 (or $x1030 (= cell_8_2 2) (= cell_8_2 3) (= cell_8_2 4) (= cell_8_2 5) (= cell_8_2 6) (= cell_8_2 7) (= cell_8_2 8) (= cell_8_2 9))))
(assert
 (let (($x995 (= cell_9_2 9)))
 (let (($x242 (= cell_9_2 8)))
 (let (($x1062 (= cell_9_2 7)))
 (let (($x556 (= cell_9_2 6)))
 (let (($x1693 (= cell_9_2 5)))
 (let (($x78 (= cell_9_2 4)))
 (let (($x2382 (= cell_9_2 3)))
 (let (($x2445 (= cell_9_2 2)))
 (let (($x315 (= cell_9_2 1)))
 (or $x315 $x2445 $x2382 $x78 $x1693 $x556 $x1062 $x242 $x995)))))))))))
(assert
 (let (($x267 (= cell_1_3 1)))
 (or $x267 (= cell_1_3 2) (= cell_1_3 3) (= cell_1_3 4) (= cell_1_3 5) (= cell_1_3 6) (= cell_1_3 7) (= cell_1_3 8) (= cell_1_3 9))))
(assert
 (let (($x2942 (= cell_2_3 9)))
 (let (($x2813 (= cell_2_3 8)))
 (let (($x3364 (= cell_2_3 7)))
 (let (($x2612 (= cell_2_3 6)))
 (let (($x1070 (= cell_2_3 5)))
 (let (($x3114 (= cell_2_3 4)))
 (let (($x18 (= cell_2_3 3)))
 (let (($x1994 (= cell_2_3 2)))
 (let (($x2573 (= cell_2_3 1)))
 (or $x2573 $x1994 $x18 $x3114 $x1070 $x2612 $x3364 $x2813 $x2942)))))))))))
(assert
 (let (($x1599 (= cell_3_3 2)))
 (or (= cell_3_3 1) $x1599 (= cell_3_3 3) (= cell_3_3 4) (= cell_3_3 5) (= cell_3_3 6) (= cell_3_3 7) (= cell_3_3 8) (= cell_3_3 9))))
(assert
 (let (($x844 (= cell_4_3 9)))
 (let (($x703 (= cell_4_3 8)))
 (let (($x508 (= cell_4_3 7)))
 (let (($x3604 (= cell_4_3 6)))
 (let (($x64 (= cell_4_3 5)))
 (let (($x3326 (= cell_4_3 4)))
 (let (($x1940 (= cell_4_3 3)))
 (let (($x2635 (= cell_4_3 2)))
 (let (($x657 (= cell_4_3 1)))
 (or $x657 $x2635 $x1940 $x3326 $x64 $x3604 $x508 $x703 $x844)))))))))))
(assert
 (let (($x2623 (= cell_5_3 9)))
 (let (($x87 (= cell_5_3 8)))
 (let (($x2889 (= cell_5_3 7)))
 (let (($x3565 (= cell_5_3 6)))
 (let (($x2845 (= cell_5_3 5)))
 (let (($x324 (= cell_5_3 4)))
 (let (($x2847 (= cell_5_3 3)))
 (let (($x621 (= cell_5_3 2)))
 (let (($x1800 (= cell_5_3 1)))
 (or $x1800 $x621 $x2847 $x324 $x2845 $x3565 $x2889 $x87 $x2623)))))))))))
(assert
 (let (($x1998 (= cell_6_3 9)))
 (let (($x1119 (= cell_6_3 8)))
 (let (($x1299 (= cell_6_3 7)))
 (let (($x785 (= cell_6_3 6)))
 (let (($x3795 (= cell_6_3 5)))
 (let (($x1749 (= cell_6_3 4)))
 (let (($x3496 (= cell_6_3 3)))
 (let (($x2544 (= cell_6_3 2)))
 (let (($x2720 (= cell_6_3 1)))
 (or $x2720 $x2544 $x3496 $x1749 $x3795 $x785 $x1299 $x1119 $x1998)))))))))))
(assert
 (let (($x933 (= cell_7_3 9)))
 (let (($x109 (= cell_7_3 8)))
 (let (($x2830 (= cell_7_3 7)))
 (let (($x1871 (= cell_7_3 6)))
 (let (($x436 (= cell_7_3 5)))
 (let (($x293 (= cell_7_3 4)))
 (let (($x291 (= cell_7_3 3)))
 (let (($x403 (= cell_7_3 2)))
 (let (($x574 (= cell_7_3 1)))
 (or $x574 $x403 $x291 $x293 $x436 $x1871 $x2830 $x109 $x933)))))))))))
(assert
 (let (($x3313 (= cell_8_3 2)))
 (let (($x2674 (= cell_8_3 1)))
 (or $x2674 $x3313 (= cell_8_3 3) (= cell_8_3 4) (= cell_8_3 5) (= cell_8_3 6) (= cell_8_3 7) (= cell_8_3 8) (= cell_8_3 9)))))
(assert
 (let (($x3412 (= cell_9_3 9)))
 (let (($x3779 (= cell_9_3 8)))
 (let (($x205 (= cell_9_3 7)))
 (let (($x1116 (= cell_9_3 6)))
 (let (($x2656 (= cell_9_3 5)))
 (let (($x1122 (= cell_9_3 4)))
 (let (($x471 (= cell_9_3 3)))
 (let (($x1609 (= cell_9_3 2)))
 (let (($x2315 (= cell_9_3 1)))
 (or $x2315 $x1609 $x471 $x1122 $x2656 $x1116 $x205 $x3779 $x3412)))))))))))
(assert
 (let (($x1230 (= cell_1_4 9)))
 (let (($x2929 (= cell_1_4 8)))
 (let (($x3512 (= cell_1_4 7)))
 (let (($x3402 (= cell_1_4 6)))
 (let (($x152 (= cell_1_4 5)))
 (let (($x3475 (= cell_1_4 4)))
 (let (($x187 (= cell_1_4 3)))
 (let (($x1013 (= cell_1_4 2)))
 (let (($x3356 (= cell_1_4 1)))
 (or $x3356 $x1013 $x187 $x3475 $x152 $x3402 $x3512 $x2929 $x1230)))))))))))
(assert
 (let (($x3107 (= cell_2_4 9)))
 (let (($x2812 (= cell_2_4 8)))
 (let (($x2170 (= cell_2_4 7)))
 (let (($x1932 (= cell_2_4 6)))
 (let (($x1752 (= cell_2_4 5)))
 (let (($x697 (= cell_2_4 4)))
 (let (($x1012 (= cell_2_4 3)))
 (let (($x318 (= cell_2_4 2)))
 (let (($x2120 (= cell_2_4 1)))
 (or $x2120 $x318 $x1012 $x697 $x1752 $x1932 $x2170 $x2812 $x3107)))))))))))
(assert
 (let (($x3236 (= cell_3_4 9)))
 (let (($x1031 (= cell_3_4 8)))
 (let (($x370 (= cell_3_4 7)))
 (let (($x977 (= cell_3_4 6)))
 (let (($x1495 (= cell_3_4 5)))
 (let (($x975 (= cell_3_4 4)))
 (let (($x42 (= cell_3_4 3)))
 (let (($x2478 (= cell_3_4 2)))
 (let (($x1267 (= cell_3_4 1)))
 (or $x1267 $x2478 $x42 $x975 $x1495 $x977 $x370 $x1031 $x3236)))))))))))
(assert
 (let (($x675 (= cell_4_4 2)))
 (or (= cell_4_4 1) $x675 (= cell_4_4 3) (= cell_4_4 4) (= cell_4_4 5) (= cell_4_4 6) (= cell_4_4 7) (= cell_4_4 8) (= cell_4_4 9))))
(assert
 (let (($x2681 (= cell_5_4 9)))
 (let (($x1802 (= cell_5_4 8)))
 (let (($x1538 (= cell_5_4 7)))
 (let (($x1704 (= cell_5_4 6)))
 (let (($x1715 (= cell_5_4 5)))
 (let (($x2345 (= cell_5_4 4)))
 (let (($x3227 (= cell_5_4 3)))
 (let (($x706 (= cell_5_4 2)))
 (let (($x3766 (= cell_5_4 1)))
 (or $x3766 $x706 $x3227 $x2345 $x1715 $x1704 $x1538 $x1802 $x2681)))))))))))
(assert
 (let (($x2650 (= cell_6_4 9)))
 (let (($x2958 (= cell_6_4 8)))
 (let (($x760 (= cell_6_4 7)))
 (let (($x183 (= cell_6_4 6)))
 (let (($x1837 (= cell_6_4 5)))
 (let (($x2887 (= cell_6_4 4)))
 (let (($x439 (= cell_6_4 3)))
 (let (($x3325 (= cell_6_4 2)))
 (let (($x124 (= cell_6_4 1)))
 (or $x124 $x3325 $x439 $x2887 $x1837 $x183 $x760 $x2958 $x2650)))))))))))
(assert
 (let (($x1157 (= cell_7_4 1)))
 (or $x1157 (= cell_7_4 2) (= cell_7_4 3) (= cell_7_4 4) (= cell_7_4 5) (= cell_7_4 6) (= cell_7_4 7) (= cell_7_4 8) (= cell_7_4 9))))
(assert
 (let (($x3448 (= cell_8_4 2)))
 (let (($x1884 (= cell_8_4 1)))
 (or $x1884 $x3448 (= cell_8_4 3) (= cell_8_4 4) (= cell_8_4 5) (= cell_8_4 6) (= cell_8_4 7) (= cell_8_4 8) (= cell_8_4 9)))))
(assert
 (let (($x2414 (= cell_9_4 9)))
 (let (($x1809 (= cell_9_4 8)))
 (let (($x294 (= cell_9_4 7)))
 (let (($x494 (= cell_9_4 6)))
 (let (($x6 (= cell_9_4 5)))
 (let (($x456 (= cell_9_4 4)))
 (let (($x956 (= cell_9_4 3)))
 (let (($x3467 (= cell_9_4 2)))
 (let (($x2450 (= cell_9_4 1)))
 (or $x2450 $x3467 $x956 $x456 $x6 $x494 $x294 $x1809 $x2414)))))))))))
(assert
 (let (($x2731 (= cell_1_5 9)))
 (let (($x3643 (= cell_1_5 8)))
 (let (($x1699 (= cell_1_5 7)))
 (let (($x2894 (= cell_1_5 6)))
 (let (($x3411 (= cell_1_5 5)))
 (let (($x651 (= cell_1_5 4)))
 (let (($x679 (= cell_1_5 3)))
 (let (($x2676 (= cell_1_5 2)))
 (let (($x1291 (= cell_1_5 1)))
 (or $x1291 $x2676 $x679 $x651 $x3411 $x2894 $x1699 $x3643 $x2731)))))))))))
(assert
 (let (($x581 (= cell_2_5 9)))
 (let (($x1876 (= cell_2_5 8)))
 (let (($x600 (= cell_2_5 7)))
 (let (($x2835 (= cell_2_5 6)))
 (let (($x1666 (= cell_2_5 5)))
 (let (($x2270 (= cell_2_5 4)))
 (let (($x312 (= cell_2_5 3)))
 (let (($x1418 (= cell_2_5 2)))
 (let (($x3814 (= cell_2_5 1)))
 (or $x3814 $x1418 $x312 $x2270 $x1666 $x2835 $x600 $x1876 $x581)))))))))))
(assert
 (let (($x1637 (= cell_3_5 9)))
 (let (($x3228 (= cell_3_5 8)))
 (let (($x3822 (= cell_3_5 7)))
 (let (($x1177 (= cell_3_5 6)))
 (let (($x1035 (= cell_3_5 5)))
 (let (($x1049 (= cell_3_5 4)))
 (let (($x3652 (= cell_3_5 3)))
 (let (($x214 (= cell_3_5 2)))
 (let (($x2502 (= cell_3_5 1)))
 (or $x2502 $x214 $x3652 $x1049 $x1035 $x1177 $x3822 $x3228 $x1637)))))))))))
(assert
 (let (($x3251 (= cell_4_5 1)))
 (or $x3251 (= cell_4_5 2) (= cell_4_5 3) (= cell_4_5 4) (= cell_4_5 5) (= cell_4_5 6) (= cell_4_5 7) (= cell_4_5 8) (= cell_4_5 9))))
(assert
 (let (($x605 (= cell_5_5 9)))
 (let (($x1015 (= cell_5_5 8)))
 (let (($x1914 (= cell_5_5 7)))
 (let (($x2017 (= cell_5_5 6)))
 (let (($x2477 (= cell_5_5 5)))
 (let (($x1759 (= cell_5_5 4)))
 (let (($x1468 (= cell_5_5 3)))
 (let (($x395 (= cell_5_5 2)))
 (let (($x2726 (= cell_5_5 1)))
 (or $x2726 $x395 $x1468 $x1759 $x2477 $x2017 $x1914 $x1015 $x605)))))))))))
(assert
 (let (($x3231 (= cell_6_5 9)))
 (let (($x2368 (= cell_6_5 8)))
 (let (($x575 (= cell_6_5 7)))
 (let (($x1238 (= cell_6_5 6)))
 (let (($x2047 (= cell_6_5 5)))
 (let (($x2236 (= cell_6_5 4)))
 (let (($x1400 (= cell_6_5 3)))
 (let (($x1946 (= cell_6_5 2)))
 (let (($x1586 (= cell_6_5 1)))
 (or $x1586 $x1946 $x1400 $x2236 $x2047 $x1238 $x575 $x2368 $x3231)))))))))))
(assert
 (let (($x974 (= cell_7_5 2)))
 (let (($x2583 (= cell_7_5 1)))
 (or $x2583 $x974 (= cell_7_5 3) (= cell_7_5 4) (= cell_7_5 5) (= cell_7_5 6) (= cell_7_5 7) (= cell_7_5 8) (= cell_7_5 9)))))
(assert
 (let (($x326 (= cell_8_5 1)))
 (or $x326 (= cell_8_5 2) (= cell_8_5 3) (= cell_8_5 4) (= cell_8_5 5) (= cell_8_5 6) (= cell_8_5 7) (= cell_8_5 8) (= cell_8_5 9))))
(assert
 (let (($x669 (= cell_9_5 9)))
 (let (($x3088 (= cell_9_5 8)))
 (let (($x1474 (= cell_9_5 7)))
 (let (($x2802 (= cell_9_5 6)))
 (let (($x1873 (= cell_9_5 5)))
 (let (($x741 (= cell_9_5 4)))
 (let (($x1316 (= cell_9_5 3)))
 (let (($x895 (= cell_9_5 2)))
 (let (($x340 (= cell_9_5 1)))
 (or $x340 $x895 $x1316 $x741 $x1873 $x2802 $x1474 $x3088 $x669)))))))))))
(assert
 (let (($x1554 (= cell_1_6 2)))
 (or (= cell_1_6 1) $x1554 (= cell_1_6 3) (= cell_1_6 4) (= cell_1_6 5) (= cell_1_6 6) (= cell_1_6 7) (= cell_1_6 8) (= cell_1_6 9))))
(assert
 (let (($x509 (= cell_2_6 1)))
 (or $x509 (= cell_2_6 2) (= cell_2_6 3) (= cell_2_6 4) (= cell_2_6 5) (= cell_2_6 6) (= cell_2_6 7) (= cell_2_6 8) (= cell_2_6 9))))
(assert
 (let (($x2080 (= cell_3_6 9)))
 (let (($x1903 (= cell_3_6 8)))
 (let (($x1338 (= cell_3_6 7)))
 (let (($x2253 (= cell_3_6 6)))
 (let (($x2752 (= cell_3_6 5)))
 (let (($x3855 (= cell_3_6 4)))
 (let (($x1629 (= cell_3_6 3)))
 (let (($x1712 (= cell_3_6 2)))
 (let (($x121 (= cell_3_6 1)))
 (or $x121 $x1712 $x1629 $x3855 $x2752 $x2253 $x1338 $x1903 $x2080)))))))))))
(assert
 (let (($x3189 (= cell_4_6 2)))
 (let (($x1636 (= cell_4_6 1)))
 (or $x1636 $x3189 (= cell_4_6 3) (= cell_4_6 4) (= cell_4_6 5) (= cell_4_6 6) (= cell_4_6 7) (= cell_4_6 8) (= cell_4_6 9)))))
(assert
 (let (($x1785 (= cell_5_6 9)))
 (let (($x135 (= cell_5_6 8)))
 (let (($x115 (= cell_5_6 7)))
 (let (($x2449 (= cell_5_6 6)))
 (let (($x33 (= cell_5_6 5)))
 (let (($x1915 (= cell_5_6 4)))
 (let (($x3010 (= cell_5_6 3)))
 (let (($x79 (= cell_5_6 2)))
 (let (($x739 (= cell_5_6 1)))
 (or $x739 $x79 $x3010 $x1915 $x33 $x2449 $x115 $x135 $x1785)))))))))))
(assert
 (let (($x2985 (= cell_6_6 9)))
 (let (($x1347 (= cell_6_6 8)))
 (let (($x2070 (= cell_6_6 7)))
 (let (($x3035 (= cell_6_6 6)))
 (let (($x523 (= cell_6_6 5)))
 (let (($x1335 (= cell_6_6 4)))
 (let (($x1958 (= cell_6_6 3)))
 (let (($x3200 (= cell_6_6 2)))
 (let (($x206 (= cell_6_6 1)))
 (or $x206 $x3200 $x1958 $x1335 $x523 $x3035 $x2070 $x1347 $x2985)))))))))))
(assert
 (let (($x1863 (= cell_7_6 2)))
 (let (($x516 (= cell_7_6 1)))
 (or $x516 $x1863 (= cell_7_6 3) (= cell_7_6 4) (= cell_7_6 5) (= cell_7_6 6) (= cell_7_6 7) (= cell_7_6 8) (= cell_7_6 9)))))
(assert
 (let (($x1041 (= cell_8_6 2)))
 (let (($x199 (= cell_8_6 1)))
 (or $x199 $x1041 (= cell_8_6 3) (= cell_8_6 4) (= cell_8_6 5) (= cell_8_6 6) (= cell_8_6 7) (= cell_8_6 8) (= cell_8_6 9)))))
(assert
 (let (($x733 (= cell_9_6 9)))
 (let (($x2581 (= cell_9_6 8)))
 (let (($x2259 (= cell_9_6 7)))
 (let (($x1587 (= cell_9_6 6)))
 (let (($x3575 (= cell_9_6 5)))
 (let (($x724 (= cell_9_6 4)))
 (let (($x3083 (= cell_9_6 3)))
 (let (($x2506 (= cell_9_6 2)))
 (let (($x2331 (= cell_9_6 1)))
 (or $x2331 $x2506 $x3083 $x724 $x3575 $x1587 $x2259 $x2581 $x733)))))))))))
(assert
 (let (($x1985 (= cell_1_7 9)))
 (let (($x1507 (= cell_1_7 8)))
 (let (($x693 (= cell_1_7 7)))
 (let (($x2668 (= cell_1_7 6)))
 (let (($x752 (= cell_1_7 5)))
 (let (($x2110 (= cell_1_7 4)))
 (let (($x1064 (= cell_1_7 3)))
 (let (($x2561 (= cell_1_7 2)))
 (let (($x584 (= cell_1_7 1)))
 (or $x584 $x2561 $x1064 $x2110 $x752 $x2668 $x693 $x1507 $x1985)))))))))))
(assert
 (let (($x2617 (= cell_2_7 9)))
 (let (($x3397 (= cell_2_7 8)))
 (let (($x423 (= cell_2_7 7)))
 (let (($x1854 (= cell_2_7 6)))
 (let (($x111 (= cell_2_7 5)))
 (let (($x2911 (= cell_2_7 4)))
 (let (($x273 (= cell_2_7 3)))
 (let (($x2524 (= cell_2_7 2)))
 (let (($x1528 (= cell_2_7 1)))
 (or $x1528 $x2524 $x273 $x2911 $x111 $x1854 $x423 $x3397 $x2617)))))))))))
(assert
 (let (($x3242 (= cell_3_7 9)))
 (let (($x2145 (= cell_3_7 8)))
 (let (($x2849 (= cell_3_7 7)))
 (let (($x52 (= cell_3_7 6)))
 (let (($x1383 (= cell_3_7 5)))
 (let (($x2658 (= cell_3_7 4)))
 (let (($x386 (= cell_3_7 3)))
 (let (($x3257 (= cell_3_7 2)))
 (let (($x913 (= cell_3_7 1)))
 (or $x913 $x3257 $x386 $x2658 $x1383 $x52 $x2849 $x2145 $x3242)))))))))))
(assert
 (let (($x2536 (= cell_4_7 9)))
 (let (($x1877 (= cell_4_7 8)))
 (let (($x2704 (= cell_4_7 7)))
 (let (($x210 (= cell_4_7 6)))
 (let (($x2864 (= cell_4_7 5)))
 (let (($x1938 (= cell_4_7 4)))
 (let (($x1059 (= cell_4_7 3)))
 (let (($x4067 (= cell_4_7 2)))
 (let (($x3606 (= cell_4_7 1)))
 (or $x3606 $x4067 $x1059 $x1938 $x2864 $x210 $x2704 $x1877 $x2536)))))))))))
(assert
 (let (($x1853 (= cell_5_7 9)))
 (let (($x1529 (= cell_5_7 8)))
 (let (($x1570 (= cell_5_7 7)))
 (let (($x1072 (= cell_5_7 6)))
 (let (($x2135 (= cell_5_7 5)))
 (let (($x3484 (= cell_5_7 4)))
 (let (($x3757 (= cell_5_7 3)))
 (let (($x3646 (= cell_5_7 2)))
 (let (($x3079 (= cell_5_7 1)))
 (or $x3079 $x3646 $x3757 $x3484 $x2135 $x1072 $x1570 $x1529 $x1853)))))))))))
(assert
 (let (($x1268 (= cell_6_7 9)))
 (let (($x1795 (= cell_6_7 8)))
 (let (($x1771 (= cell_6_7 7)))
 (let (($x3730 (= cell_6_7 6)))
 (let (($x1328 (= cell_6_7 5)))
 (let (($x1669 (= cell_6_7 4)))
 (let (($x307 (= cell_6_7 3)))
 (let (($x280 (= cell_6_7 2)))
 (let (($x1737 (= cell_6_7 1)))
 (or $x1737 $x280 $x307 $x1669 $x1328 $x3730 $x1771 $x1795 $x1268)))))))))))
(assert
 (let (($x323 (= cell_7_7 9)))
 (let (($x711 (= cell_7_7 8)))
 (let (($x2151 (= cell_7_7 7)))
 (let (($x1435 (= cell_7_7 6)))
 (let (($x1951 (= cell_7_7 5)))
 (let (($x594 (= cell_7_7 4)))
 (let (($x2796 (= cell_7_7 3)))
 (let (($x1798 (= cell_7_7 2)))
 (let (($x360 (= cell_7_7 1)))
 (or $x360 $x1798 $x2796 $x594 $x1951 $x1435 $x2151 $x711 $x323)))))))))))
(assert
 (let (($x1218 (= cell_8_7 9)))
 (let (($x2206 (= cell_8_7 8)))
 (let (($x3568 (= cell_8_7 7)))
 (let (($x1199 (= cell_8_7 6)))
 (let (($x2035 (= cell_8_7 5)))
 (let (($x1129 (= cell_8_7 4)))
 (let (($x433 (= cell_8_7 3)))
 (let (($x2910 (= cell_8_7 2)))
 (let (($x1289 (= cell_8_7 1)))
 (or $x1289 $x2910 $x433 $x1129 $x2035 $x1199 $x3568 $x2206 $x1218)))))))))))
(assert
 (let (($x3499 (= cell_9_7 1)))
 (or $x3499 (= cell_9_7 2) (= cell_9_7 3) (= cell_9_7 4) (= cell_9_7 5) (= cell_9_7 6) (= cell_9_7 7) (= cell_9_7 8) (= cell_9_7 9))))
(assert
 (let (($x2711 (= cell_1_8 9)))
 (let (($x1508 (= cell_1_8 8)))
 (let (($x890 (= cell_1_8 7)))
 (let (($x1378 (= cell_1_8 6)))
 (let (($x601 (= cell_1_8 5)))
 (let (($x1537 (= cell_1_8 4)))
 (let (($x894 (= cell_1_8 3)))
 (let (($x1783 (= cell_1_8 2)))
 (let (($x2152 (= cell_1_8 1)))
 (or $x2152 $x1783 $x894 $x1537 $x601 $x1378 $x890 $x1508 $x2711)))))))))))
(assert
 (let (($x2359 (= cell_2_8 2)))
 (or (= cell_2_8 1) $x2359 (= cell_2_8 3) (= cell_2_8 4) (= cell_2_8 5) (= cell_2_8 6) (= cell_2_8 7) (= cell_2_8 8) (= cell_2_8 9))))
(assert
 (let (($x2464 (= cell_3_8 9)))
 (let (($x1142 (= cell_3_8 8)))
 (let (($x3833 (= cell_3_8 7)))
 (let (($x1734 (= cell_3_8 6)))
 (let (($x239 (= cell_3_8 5)))
 (let (($x2872 (= cell_3_8 4)))
 (let (($x2639 (= cell_3_8 3)))
 (let (($x1675 (= cell_3_8 2)))
 (let (($x2114 (= cell_3_8 1)))
 (or $x2114 $x1675 $x2639 $x2872 $x239 $x1734 $x3833 $x1142 $x2464)))))))))))
(assert
 (let (($x2219 (= cell_4_8 9)))
 (let (($x645 (= cell_4_8 8)))
 (let (($x259 (= cell_4_8 7)))
 (let (($x1461 (= cell_4_8 6)))
 (let (($x119 (= cell_4_8 5)))
 (let (($x2380 (= cell_4_8 4)))
 (let (($x2757 (= cell_4_8 3)))
 (let (($x530 (= cell_4_8 2)))
 (let (($x2458 (= cell_4_8 1)))
 (or $x2458 $x530 $x2757 $x2380 $x119 $x1461 $x259 $x645 $x2219)))))))))))
(assert
 (let (($x569 (= cell_5_8 1)))
 (or $x569 (= cell_5_8 2) (= cell_5_8 3) (= cell_5_8 4) (= cell_5_8 5) (= cell_5_8 6) (= cell_5_8 7) (= cell_5_8 8) (= cell_5_8 9))))
(assert
 (let (($x859 (= cell_6_8 9)))
 (let (($x2546 (= cell_6_8 8)))
 (let (($x1558 (= cell_6_8 7)))
 (let (($x969 (= cell_6_8 6)))
 (let (($x666 (= cell_6_8 5)))
 (let (($x1020 (= cell_6_8 4)))
 (let (($x2090 (= cell_6_8 3)))
 (let (($x860 (= cell_6_8 2)))
 (let (($x237 (= cell_6_8 1)))
 (or $x237 $x860 $x2090 $x1020 $x666 $x969 $x1558 $x2546 $x859)))))))))))
(assert
 (let (($x151 (= cell_7_8 9)))
 (let (($x296 (= cell_7_8 8)))
 (let (($x3205 (= cell_7_8 7)))
 (let (($x2296 (= cell_7_8 6)))
 (let (($x2245 (= cell_7_8 5)))
 (let (($x2810 (= cell_7_8 4)))
 (let (($x2257 (= cell_7_8 3)))
 (let (($x2231 (= cell_7_8 2)))
 (let (($x864 (= cell_7_8 1)))
 (or $x864 $x2231 $x2257 $x2810 $x2245 $x2296 $x3205 $x296 $x151)))))))))))
(assert
 (let (($x781 (= cell_8_8 9)))
 (let (($x2680 (= cell_8_8 8)))
 (let (($x2455 (= cell_8_8 7)))
 (let (($x1947 (= cell_8_8 6)))
 (let (($x1803 (= cell_8_8 5)))
 (let (($x12 (= cell_8_8 4)))
 (let (($x1200 (= cell_8_8 3)))
 (let (($x448 (= cell_8_8 2)))
 (let (($x3140 (= cell_8_8 1)))
 (or $x3140 $x448 $x1200 $x12 $x1803 $x1947 $x2455 $x2680 $x781)))))))))))
(assert
 (let (($x2372 (= cell_9_8 2)))
 (let (($x1077 (= cell_9_8 1)))
 (or $x1077 $x2372 (= cell_9_8 3) (= cell_9_8 4) (= cell_9_8 5) (= cell_9_8 6) (= cell_9_8 7) (= cell_9_8 8) (= cell_9_8 9)))))
(assert
 (let (($x2874 (= cell_1_9 9)))
 (let (($x634 (= cell_1_9 8)))
 (let (($x228 (= cell_1_9 7)))
 (let (($x1354 (= cell_1_9 6)))
 (let (($x240 (= cell_1_9 5)))
 (let (($x2569 (= cell_1_9 4)))
 (let (($x1466 (= cell_1_9 3)))
 (let (($x2903 (= cell_1_9 2)))
 (let (($x1851 (= cell_1_9 1)))
 (or $x1851 $x2903 $x1466 $x2569 $x240 $x1354 $x228 $x634 $x2874)))))))))))
(assert
 (let (($x2645 (= cell_2_9 9)))
 (let (($x2690 (= cell_2_9 8)))
 (let (($x131 (= cell_2_9 7)))
 (let (($x2099 (= cell_2_9 6)))
 (let (($x1846 (= cell_2_9 5)))
 (let (($x2795 (= cell_2_9 4)))
 (let (($x2383 (= cell_2_9 3)))
 (let (($x1046 (= cell_2_9 2)))
 (let (($x1169 (= cell_2_9 1)))
 (or $x1169 $x1046 $x2383 $x2795 $x1846 $x2099 $x131 $x2690 $x2645)))))))))))
(assert
 (let (($x3427 (= cell_3_9 1)))
 (or $x3427 (= cell_3_9 2) (= cell_3_9 3) (= cell_3_9 4) (= cell_3_9 5) (= cell_3_9 6) (= cell_3_9 7) (= cell_3_9 8) (= cell_3_9 9))))
(assert
 (let (($x915 (= cell_4_9 9)))
 (let (($x1812 (= cell_4_9 8)))
 (let (($x635 (= cell_4_9 7)))
 (let (($x2867 (= cell_4_9 6)))
 (let (($x2364 (= cell_4_9 5)))
 (let (($x1149 (= cell_4_9 4)))
 (let (($x196 (= cell_4_9 3)))
 (let (($x1710 (= cell_4_9 2)))
 (let (($x1374 (= cell_4_9 1)))
 (or $x1374 $x1710 $x196 $x1149 $x2364 $x2867 $x635 $x1812 $x915)))))))))))
(assert
 (let (($x1573 (= cell_5_9 9)))
 (let (($x157 (= cell_5_9 8)))
 (let (($x1969 (= cell_5_9 7)))
 (let (($x2320 (= cell_5_9 6)))
 (let (($x108 (= cell_5_9 5)))
 (let (($x3706 (= cell_5_9 4)))
 (let (($x500 (= cell_5_9 3)))
 (let (($x1816 (= cell_5_9 2)))
 (let (($x3022 (= cell_5_9 1)))
 (or $x3022 $x1816 $x500 $x3706 $x108 $x2320 $x1969 $x157 $x1573)))))))))))
(assert
 (let (($x2235 (= cell_6_9 2)))
 (or (= cell_6_9 1) $x2235 (= cell_6_9 3) (= cell_6_9 4) (= cell_6_9 5) (= cell_6_9 6) (= cell_6_9 7) (= cell_6_9 8) (= cell_6_9 9))))
(assert
 (let (($x2234 (= cell_7_9 9)))
 (let (($x802 (= cell_7_9 8)))
 (let (($x1339 (= cell_7_9 7)))
 (let (($x1372 (= cell_7_9 6)))
 (let (($x2410 (= cell_7_9 5)))
 (let (($x1755 (= cell_7_9 4)))
 (let (($x1133 (= cell_7_9 3)))
 (let (($x788 (= cell_7_9 2)))
 (let (($x1131 (= cell_7_9 1)))
 (or $x1131 $x788 $x1133 $x1755 $x2410 $x1372 $x1339 $x802 $x2234)))))))))))
(assert
 (let (($x3055 (= cell_8_9 9)))
 (let (($x929 (= cell_8_9 8)))
 (let (($x1531 (= cell_8_9 7)))
 (let (($x1453 (= cell_8_9 6)))
 (let (($x2136 (= cell_8_9 5)))
 (let (($x2268 (= cell_8_9 4)))
 (let (($x3676 (= cell_8_9 3)))
 (let (($x2028 (= cell_8_9 2)))
 (let (($x2672 (= cell_8_9 1)))
 (or $x2672 $x2028 $x3676 $x2268 $x2136 $x1453 $x1531 $x929 $x3055)))))))))))
(assert
 (let (($x1327 (= cell_9_9 2)))
 (let (($x2666 (= cell_9_9 1)))
 (or $x2666 $x1327 (= cell_9_9 3) (= cell_9_9 4) (= cell_9_9 5) (= cell_9_9 6) (= cell_9_9 7) (= cell_9_9 8) (= cell_9_9 9)))))
(assert
 (and (distinct cell_1_1 cell_1_2 cell_1_3 cell_1_4 cell_1_5 cell_1_6 cell_1_7 cell_1_8 cell_1_9) true))
(assert
 (and (distinct cell_2_1 cell_2_2 cell_2_3 cell_2_4 cell_2_5 cell_2_6 cell_2_7 cell_2_8 cell_2_9) true))
(assert
 (and (distinct cell_3_1 cell_3_2 cell_3_3 cell_3_4 cell_3_5 cell_3_6 cell_3_7 cell_3_8 cell_3_9) true))
(assert
 (and (distinct cell_4_1 cell_4_2 cell_4_3 cell_4_4 cell_4_5 cell_4_6 cell_4_7 cell_4_8 cell_4_9) true))
(assert
 (and (distinct cell_5_1 cell_5_2 cell_5_3 cell_5_4 cell_5_5 cell_5_6 cell_5_7 cell_5_8 cell_5_9) true))
(assert
 (and (distinct cell_6_1 cell_6_2 cell_6_3 cell_6_4 cell_6_5 cell_6_6 cell_6_7 cell_6_8 cell_6_9) true))
(assert
 (and (distinct cell_7_1 cell_7_2 cell_7_3 cell_7_4 cell_7_5 cell_7_6 cell_7_7 cell_7_8 cell_7_9) true))
(assert
 (and (distinct cell_8_1 cell_8_2 cell_8_3 cell_8_4 cell_8_5 cell_8_6 cell_8_7 cell_8_8 cell_8_9) true))
(assert
 (and (distinct cell_9_1 cell_9_2 cell_9_3 cell_9_4 cell_9_5 cell_9_6 cell_9_7 cell_9_8 cell_9_9) true))
(assert
 (and (distinct cell_1_1 cell_2_1 cell_3_1 cell_4_1 cell_5_1 cell_6_1 cell_7_1 cell_8_1 cell_9_1) true))
(assert
 (and (distinct cell_1_2 cell_2_2 cell_3_2 cell_4_2 cell_5_2 cell_6_2 cell_7_2 cell_8_2 cell_9_2) true))
(assert
 (and (distinct cell_1_3 cell_2_3 cell_3_3 cell_4_3 cell_5_3 cell_6_3 cell_7_3 cell_8_3 cell_9_3) true))
(assert
 (and (distinct cell_1_4 cell_2_4 cell_3_4 cell_4_4 cell_5_4 cell_6_4 cell_7_4 cell_8_4 cell_9_4) true))
(assert
 (and (distinct cell_1_5 cell_2_5 cell_3_5 cell_4_5 cell_5_5 cell_6_5 cell_7_5 cell_8_5 cell_9_5) true))
(assert
 (and (distinct cell_1_6 cell_2_6 cell_3_6 cell_4_6 cell_5_6 cell_6_6 cell_7_6 cell_8_6 cell_9_6) true))
(assert
 (and (distinct cell_1_7 cell_2_7 cell_3_7 cell_4_7 cell_5_7 cell_6_7 cell_7_7 cell_8_7 cell_9_7) true))
(assert
 (and (distinct cell_1_8 cell_2_8 cell_3_8 cell_4_8 cell_5_8 cell_6_8 cell_7_8 cell_8_8 cell_9_8) true))
(assert
 (and (distinct cell_1_9 cell_2_9 cell_3_9 cell_4_9 cell_5_9 cell_6_9 cell_7_9 cell_8_9 cell_9_9) true))
(assert
 (and (distinct cell_1_1 cell_1_2 cell_1_3 cell_2_1 cell_2_2 cell_2_3 cell_3_1 cell_3_2 cell_3_3) true))
(assert
 (and (distinct cell_1_4 cell_1_5 cell_1_6 cell_2_4 cell_2_5 cell_2_6 cell_3_4 cell_3_5 cell_3_6) true))
(assert
 (and (distinct cell_1_7 cell_1_8 cell_1_9 cell_2_7 cell_2_8 cell_2_9 cell_3_7 cell_3_8 cell_3_9) true))
(assert
 (and (distinct cell_4_1 cell_4_2 cell_4_3 cell_5_1 cell_5_2 cell_5_3 cell_6_1 cell_6_2 cell_6_3) true))
(assert
 (and (distinct cell_4_4 cell_4_5 cell_4_6 cell_5_4 cell_5_5 cell_5_6 cell_6_4 cell_6_5 cell_6_6) true))
(assert
 (and (distinct cell_4_7 cell_4_8 cell_4_9 cell_5_7 cell_5_8 cell_5_9 cell_6_7 cell_6_8 cell_6_9) true))
(assert
 (and (distinct cell_7_1 cell_7_2 cell_7_3 cell_8_1 cell_8_2 cell_8_3 cell_9_1 cell_9_2 cell_9_3) true))
(assert
 (and (distinct cell_7_4 cell_7_5 cell_7_6 cell_8_4 cell_8_5 cell_8_6 cell_9_4 cell_9_5 cell_9_6) true))
(assert
 (and (distinct cell_7_7 cell_7_8 cell_7_9 cell_8_7 cell_8_8 cell_8_9 cell_9_7 cell_9_8 cell_9_9) true))
(assert
 (let (($x694 (and (distinct cell_5_9 cell_6_8 cell_7_7 cell_8_6) true)))
 (let (($x2442 (and (distinct cell_2_9 cell_3_8 cell_4_7 cell_5_6 cell_6_5 cell_7_4 cell_8_3 cell_9_2) true)))
 (let (($x627 (and (distinct cell_1_8 cell_2_7 cell_3_6 cell_4_5 cell_5_4 cell_6_3 cell_7_2 cell_8_1) true)))
 (let (($x2715 (and (distinct cell_1_5 cell_2_4 cell_3_3 cell_4_2) true)))
 (let (($x2515 (and (distinct cell_5_1 cell_6_2 cell_7_3 cell_8_4) true)))
 (let (($x3413 (and (distinct cell_2_1 cell_3_2 cell_4_3 cell_5_4 cell_6_5 cell_7_6 cell_8_7 cell_9_8) true)))
 (let (($x906 (and (distinct cell_1_2 cell_2_3 cell_3_4 cell_4_5 cell_5_6 cell_6_7 cell_7_8 cell_8_9) true)))
 (let (($x61 (and (distinct cell_1_5 cell_2_6 cell_3_7 cell_4_8) true)))
 (and $x61 $x906 $x3413 $x2515 $x2715 $x627 $x2442 $x694))))))))))
(assert
 (= cell_8_7 2))
(check-sat)
